{'n_x0_y0': ['n_x1_y0', 'n_x0_y1'], 'n_x0_y1': ['n_x0_y0', 'n_x1_y1', 'n_x0_y2'], 'n_x0_y2': ['n_x0_y1', 'n_x1_y2', 'n_x0_y3'], 'n_x0_y3': ['n_x0_y2', 'n_x1_y3', 'n_x0_y4'], 'n_x0_y4': ['n_x0_y3', 'n_x1_y4', 'n_x0_y5'], 'n_x0_y5': ['n_x0_y4', 'n_x1_y5', 'n_x0_y6'], 'n_x0_y6': ['n_x0_y5', 'n_x1_y6', 'n_x0_y7'], 'n_x0_y7': ['n_x0_y6', 'n_x1_y7', 'n_x0_y8'], 'n_x0_y8': ['n_x0_y7', 'n_x1_y8'], 'n_x1_y0': ['n_x0_y0', 'n_x2_y0', 'n_x1_y1'], 'n_x1_y1': ['n_x0_y1', 'n_x1_y0', 'n_x2_y1', 'n_x1_y2'], 'n_x1_y2': ['n_x0_y2', 'n_x1_y1', 'n_x2_y2', 'n_x1_y3'], 'n_x1_y3': ['n_x0_y3', 'n_x1_y2', 'n_x2_y3', 'n_x1_y4'], 'n_x1_y4': ['n_x0_y4', 'n_x1_y3', 'n_x2_y4', 'n_x1_y5'], 'n_x1_y5': ['n_x0_y5', 'n_x1_y4', 'n_x2_y5', 'n_x1_y6'], 'n_x1_y6': ['n_x0_y6', 'n_x1_y5', 'n_x2_y6', 'n_x1_y7'], 'n_x1_y7': ['n_x0_y7', 'n_x1_y6', 'n_x2_y7', 'n_x1_y8'], 'n_x1_y8': ['n_x0_y8', 'n_x1_y7', 'n_x2_y8'], 'n_x2_y0': ['n_x1_y0', 'n_x3_y0', 'n_x2_y1'], 'n_x2_y1': ['n_x1_y1', 'n_x2_y0', 'n_x3_y1', 'n_x2_y2'], 'n_x2_y2': ['n_x1_y2', 'n_x2_y1', 'n_x3_y2', 'n_x2_y3'], 'n_x2_y3': ['n_x1_y3', 'n_x2_y2', 'n_x3_y3', 'n_x2_y4'], 'n_x2_y4': ['n_x1_y4', 'n_x2_y3', 'n_x3_y4', 'n_x2_y5'], 'n_x2_y5': ['n_x1_y5', 'n_x2_y4', 'n_x3_y5', 'n_x2_y6'], 'n_x2_y6': ['n_x1_y6', 'n_x2_y5', 'n_x3_y6', 'n_x2_y7'], 'n_x2_y7': ['n_x1_y7', 'n_x2_y6', 'n_x3_y7', 'n_x2_y8'], 'n_x2_y8': ['n_x1_y8', 'n_x2_y7', 'n_x3_y8'], 'n_x3_y0': ['n_x2_y0', 'n_x4_y0', 'n_x3_y1'], 'n_x3_y1': ['n_x2_y1', 'n_x3_y0', 'n_x4_y1', 'n_x3_y2'], 'n_x3_y2': ['n_x2_y2', 'n_x3_y1', 'n_x4_y2', 'n_x3_y3'], 'n_x3_y3': ['n_x2_y3', 'n_x3_y2', 'n_x4_y3', 'n_x3_y4'], 'n_x3_y4': ['n_x2_y4', 'n_x3_y3', 'n_x4_y4', 'n_x3_y5'], 'n_x3_y5': ['n_x2_y5', 'n_x3_y4', 'n_x4_y5', 'n_x3_y6'], 'n_x3_y6': ['n_x2_y6', 'n_x3_y5', 'n_x4_y6', 'n_x3_y7'], 'n_x3_y7': ['n_x2_y7', 'n_x3_y6', 'n_x4_y7', 'n_x3_y8'], 'n_x3_y8': ['n_x2_y8', 'n_x3_y7', 'n_x4_y8'], 'n_x4_y0': ['n_x3_y0', 'n_x5_y0', 'n_x4_y1'], 'n_x4_y1': ['n_x3_y1', 'n_x4_y0', 'n_x5_y1', 'n_x4_y2'], 'n_x4_y2': ['n_x3_y2', 'n_x4_y1', 'n_x5_y2', 'n_x4_y3'], 'n_x4_y3': ['n_x3_y3', 'n_x4_y2', 'n_x5_y3', 'n_x4_y4'], 'n_x4_y4': ['n_x3_y4', 'n_x4_y3', 'n_x5_y4', 'n_x4_y5'], 'n_x4_y5': ['n_x3_y5', 'n_x4_y4', 'n_x5_y5', 'n_x4_y6'], 'n_x4_y6': ['n_x3_y6', 'n_x4_y5', 'n_x5_y6', 'n_x4_y7'], 'n_x4_y7': ['n_x3_y7', 'n_x4_y6', 'n_x5_y7', 'n_x4_y8'], 'n_x4_y8': ['n_x3_y8', 'n_x4_y7', 'n_x5_y8'], 'n_x5_y0': ['n_x4_y0', 'n_x5_y1'], 'n_x5_y1': ['n_x4_y1', 'n_x5_y0', 'n_x5_y2'], 'n_x5_y2': ['n_x4_y2', 'n_x5_y1', 'n_x5_y3'], 'n_x5_y3': ['n_x4_y3', 'n_x5_y2', 'n_x5_y4'], 'n_x5_y4': ['n_x4_y4', 'n_x5_y3', 'n_x5_y5'], 'n_x5_y5': ['n_x4_y5', 'n_x5_y4', 'n_x5_y6'], 'n_x5_y6': ['n_x4_y6', 'n_x5_y5', 'n_x5_y7'], 'n_x5_y7': ['n_x4_y7', 'n_x5_y6', 'n_x5_y8'], 'n_x5_y8': ['n_x4_y8', 'n_x5_y7']}
Set parameter TokenServer to value "opt-license.discovery.wisc.edu"
Set parameter TimeLimit to value 600
Gurobi Optimizer version 9.5.1 build v9.5.1rc2 (linux64)
Thread count: 40 physical cores, 80 logical processors, using up to 32 threads
Optimize a model with 5887 rows, 2916 columns and 19494 nonzeros
Model fingerprint: 0xe485b356
Variable types: 0 continuous, 2916 integer (2916 binary)
Coefficient statistics:
  Matrix range     [1e+00, 1e+03]
  Objective range  [1e+00, 9e+00]
  Bounds range     [1e+00, 1e+00]
  RHS range        [1e+00, 6e+00]
Presolve removed 761 rows and 5 columns
Presolve time: 0.12s
Presolved: 5126 rows, 2911 columns, 18060 nonzeros
Variable types: 0 continuous, 2911 integer (2911 binary)

Root relaxation: objective 5.982620e+01, 1063 iterations, 0.08 seconds (0.05 work units)

    Nodes    |    Current Node    |     Objective Bounds      |     Work
 Expl Unexpl |  Obj  Depth IntInf | Incumbent    BestBd   Gap | It/Node Time

     0     0   59.82620    0   29          -   59.82620      -     -    0s
H    0     0                      74.8761489   59.82620  20.1%     -    0s
     0     0   61.69087    0  156   74.87615   61.69087  17.6%     -    0s
H    0     0                      64.6361840   61.69087  4.56%     -    0s
H    0     0                      64.4001160   61.71208  4.17%     -    1s
     0     0   61.79640    0  154   64.40012   61.79640  4.04%     -    1s
     0     0   62.03660    0  142   64.40012   62.03660  3.67%     -    1s
     0     0   62.03660    0   28   64.40012   62.03660  3.67%     -    1s
     0     0   62.03660    0  113   64.40012   62.03660  3.67%     -    1s
H    0     0                      63.0503976   62.03660  1.61%     -    1s
     0     0   62.03715    0   86   63.05040   62.03715  1.61%     -    1s
     0     0   62.06554    0  197   63.05040   62.06554  1.56%     -    1s
     0     0   62.06554    0   28   63.05040   62.06554  1.56%     -    1s
     0     0   62.06554    0  119   63.05040   62.06554  1.56%     -    1s
     0     0   62.06554    0  123   63.05040   62.06554  1.56%     -    1s
     0     0   62.06638    0  149   63.05040   62.06638  1.56%     -    1s
     0     0   62.07175    0  157   63.05040   62.07175  1.55%     -    1s
     0     0   62.09623    0  179   63.05040   62.09623  1.51%     -    2s
     0     0   62.10253    0  169   63.05040   62.10253  1.50%     -    2s
H    0     0                      62.8722520   62.10253  1.22%     -    2s
     0     0   62.34504    0  162   62.87225   62.34504  0.84%     -    2s
     0     0   62.34504    0   27   62.87225   62.34504  0.84%     -    2s
     0     0   62.34504    0  118   62.87225   62.34504  0.84%     -    2s
     0     0   62.34504    0  111   62.87225   62.34504  0.84%     -    2s
     0     0   62.34504    0  149   62.87225   62.34504  0.84%     -    2s
     0     0   62.34504    0  149   62.87225   62.34504  0.84%     -    2s
     0     0   62.34504    0   96   62.87225   62.34504  0.84%     -    2s
     0     0   62.34504    0   99   62.87225   62.34504  0.84%     -    2s
     0     0   62.87225    0   94   62.87225   62.87225  0.00%     -    2s

Cutting planes:
  Gomory: 4
  Lift-and-project: 1
  Clique: 2
  MIR: 7
  StrongCG: 7
  GUB cover: 6
  RLT: 2

Explored 1 nodes (5489 simplex iterations) in 2.46 seconds (0.91 work units)
Thread count was 32 (of 80 available processors)

Solution count 6: 62.8723 63.0504 64.4001 ... 74.8761

Optimal solution found (tolerance 1.00e-04)
Best objective 6.287225198771e+01, best bound 6.287225198771e+01, gap 0.0000%
